(set-info :smt-lib-version 2.6)
(set-logic QF_LRA)
(set-info :source | Clock Synchronization. Bruno Dutertre (bruno@csl.sri.com) |)
(set-info :category "industrial")
(set-info :status unsat)
(declare-fun x_0 () Real)
(declare-fun x_1 () Real)
(declare-fun x_2 () Real)
(declare-fun x_3 () Real)
(declare-fun x_4 () Real)
(declare-fun x_5 () Real)
(declare-fun x_6 () Real)
(declare-fun x_7 () Real)
(declare-fun x_8 () Real)
(declare-fun x_9 () Real)
(declare-fun x_10 () Real)
(declare-fun x_11 () Real)
(declare-fun x_12 () Real)
(declare-fun x_13 () Real)
(declare-fun x_14 () Real)
(declare-fun x_15 () Real)
(declare-fun x_16 () Real)
(declare-fun x_17 () Real)
(declare-fun x_18 () Real)
(declare-fun x_19 () Real)
(declare-fun x_20 () Real)
(declare-fun x_21 () Real)
(declare-fun x_22 () Real)
(declare-fun x_23 () Real)
(declare-fun x_24 () Real)
(declare-fun x_25 () Real)
(declare-fun x_26 () Real)
(declare-fun x_27 () Real)
(declare-fun x_28 () Real)
(declare-fun x_29 () Real)
(declare-fun x_30 () Real)
(declare-fun x_31 () Real)
(declare-fun x_32 () Real)
(declare-fun x_33 () Real)
(declare-fun x_34 () Real)
(declare-fun x_35 () Real)
(declare-fun x_36 () Real)
(declare-fun x_37 () Real)
(declare-fun x_38 () Real)
(declare-fun x_39 () Real)
(declare-fun x_40 () Real)
(declare-fun x_41 () Real)
(declare-fun x_42 () Real)
(declare-fun x_43 () Real)
(declare-fun x_44 () Real)
(declare-fun x_45 () Real)
(declare-fun x_46 () Real)
(declare-fun x_47 () Real)
(declare-fun x_48 () Real)
(declare-fun x_49 () Real)
(declare-fun x_50 () Real)
(declare-fun x_51 () Real)
(declare-fun x_52 () Real)
(declare-fun x_53 () Real)
(declare-fun x_54 () Real)
(declare-fun x_55 () Real)
(declare-fun x_56 () Real)
(declare-fun x_57 () Real)
(declare-fun x_58 () Real)
(declare-fun x_59 () Real)
(declare-fun x_60 () Real)
(declare-fun x_61 () Real)
(declare-fun x_62 () Real)
(declare-fun x_63 () Real)
(declare-fun x_64 () Real)
(declare-fun x_65 () Real)
(declare-fun x_66 () Real)
(declare-fun x_67 () Real)
(declare-fun x_68 () Real)
(declare-fun x_69 () Real)
(declare-fun x_70 () Real)
(declare-fun x_71 () Real)
(declare-fun x_72 () Real)
(declare-fun x_73 () Real)
(declare-fun x_74 () Real)
(declare-fun x_75 () Real)
(declare-fun x_76 () Real)
(declare-fun x_77 () Real)
(declare-fun x_78 () Real)
(declare-fun x_79 () Real)
(declare-fun x_80 () Real)
(declare-fun x_81 () Real)
(declare-fun x_82 () Real)
(declare-fun x_83 () Real)
(declare-fun x_84 () Real)
(assert (let ((?v_34 (= x_37 x_5)) (?v_47 (= x_39 x_1)) (?v_13 (= x_41 x_2)) (?v_20 (= x_42 x_3)) (?v_27 (= x_43 x_4)) (?v_80 (= x_8 x_13))) (let ((?v_75 (not ?v_80)) (?v_74 (+ (+ x_13 x_6) x_7))) (let ((?v_106 (= x_8 ?v_74)) (?v_83 (= x_9 x_13))) (let ((?v_76 (not ?v_83)) (?v_110 (= x_9 ?v_74)) (?v_86 (= x_10 x_13))) (let ((?v_77 (not ?v_86)) (?v_114 (= x_10 ?v_74)) (?v_89 (= x_11 x_13))) (let ((?v_78 (not ?v_89)) (?v_118 (= x_11 ?v_74)) (?v_92 (= x_12 x_13))) (let ((?v_79 (not ?v_92)) (?v_122 (= x_12 ?v_74)) (?v_105 (not (<= x_40 x_13))) (?v_109 (not (<= x_34 x_13))) (?v_113 (not (<= x_35 x_13))) (?v_117 (not (<= x_36 x_13))) (?v_121 (not (<= x_38 x_13)))) (let ((?v_125 (or ?v_105 ?v_106)) (?v_128 (or ?v_109 ?v_110)) (?v_131 (or ?v_113 ?v_114)) (?v_134 (or ?v_117 ?v_118)) (?v_137 (or ?v_121 ?v_122)) (?v_5 (= x_29 0)) (?v_14 (= x_30 0)) (?v_21 (= x_31 0)) (?v_28 (= x_32 0)) (?v_35 (= x_33 0)) (?v_4 (= x_8 x_6)) (?v_15 (= x_9 x_6)) (?v_22 (= x_10 x_6)) (?v_29 (= x_11 x_6)) (?v_36 (= x_12 x_6)) (?v_48 (= x_40 1)) (?v_16 (= x_34 1)) (?v_23 (= x_35 1)) (?v_30 (= x_36 1)) (?v_37 (= x_38 1)) (?v_10 (= x_17 0)) (?v_17 (= x_20 0)) (?v_24 (= x_23 0)) (?v_31 (= x_26 0)) (?v_38 (= x_16 0)) (?v_9 (= x_18 0)) (?v_18 (= x_21 0)) (?v_25 (= x_24 0)) (?v_32 (= x_27 0)) (?v_39 (= x_15 0)) (?v_11 (= x_19 0)) (?v_19 (= x_22 0)) (?v_26 (= x_25 0)) (?v_33 (= x_28 0)) (?v_40 (= x_14 0)) (?v_6 (= 1 x_6)) (?v_3 (+ 1 1))) (let ((?v_8 (= x_40 ?v_3)) (?v_7 (= (+ x_6 x_7) 1))) (let ((?v_12 (and (not ?v_6) (not ?v_7))) (?v_46 (= x_34 ?v_3)) (?v_50 (= x_35 ?v_3)) (?v_52 (= x_36 ?v_3)) (?v_54 (= x_38 ?v_3)) (?v_65 (+ x_0 x_6))) (let ((?v_66 (<= x_8 ?v_65)) (?v_67 (<= x_9 ?v_65)) (?v_68 (<= x_10 ?v_65)) (?v_69 (<= x_11 ?v_65)) (?v_70 (<= x_12 ?v_65)) (?v_147 (not (<= (- ?v_65 x_83) 1))) (?v_148 (not (>= (- ?v_65 x_84) 1))) (?v_154 (- 1 1))) (let ((?v_149 (not (<= ?v_154 x_82))) (?v_153 (= x_6 ?v_65))) (let ((?v_152 (not ?v_153)) (?v_150 (+ (+ ?v_65 x_6) x_7))) (let ((?v_173 (= x_6 ?v_150))) (let ((?v_151 (and (or ?v_152 (not (>= (+ ?v_65 x_7) 1))) (not ?v_173))) (?v_172 (not (>= ?v_65 1)))) (let ((?v_164 (and ?v_153 ?v_172)) (?v_165 (< x_0 0)) (?v_177 (or ?v_172 ?v_173)) (?v_178 (- 0 x_1))) (let ((?v_174 (* ?v_178 1000)) (?v_185 (- 0 x_5))) (let ((?v_175 (* ?v_185 1000)) (?v_186 (+ 0 x_7))) (let ((?v_187 (and ?v_173 (not (= ?v_186 0)))) (?v_188 (- 0 0)) (?v_2 (* x_29 2)) (?v_41 (- ?v_3 1)) (?v_43 (+ ?v_3 1)) (?v_44 (+ ?v_186 1)) (?v_45 (+ (+ x_6 x_6) x_7)) (?v_42 (* x_30 2)) (?v_49 (* x_31 2)) (?v_51 (* x_32 2)) (?v_53 (* x_33 2)) (?v_55 (- x_40 x_44)) (?v_56 (- x_34 x_44)) (?v_57 (- x_35 x_44)) (?v_58 (- x_36 x_44)) (?v_59 (- x_38 x_44)) (?v_60 (+ x_40 x_44)) (?v_61 (+ x_34 x_44)) (?v_62 (+ x_35 x_44)) (?v_63 (+ x_36 x_44)) (?v_64 (+ x_38 x_44)) (?v_71 (- x_13 x_83)) (?v_72 (- x_13 x_84)) (?v_73 (+ x_13 x_7)) (?v_81 (- x_39 x_77)) (?v_82 (- x_40 x_72)) (?v_84 (- x_41 x_78)) (?v_85 (- x_34 x_73)) (?v_87 (- x_42 x_79)) (?v_88 (- x_35 x_74)) (?v_90 (- x_43 x_80)) (?v_91 (- x_36 x_75)) (?v_93 (- x_37 x_81)) (?v_94 (- x_38 x_76)) (?v_95 (- x_39 x_19)) (?v_96 (- x_40 x_13)) (?v_97 (- x_41 x_22)) (?v_98 (- x_34 x_13)) (?v_99 (- x_42 x_25)) (?v_100 (- x_35 x_13)) (?v_101 (- x_43 x_28)) (?v_102 (- x_36 x_13)) (?v_103 (- x_37 x_14)) (?v_104 (- x_38 x_13)) (?v_126 (- x_19 x_77))) (let ((?v_107 (* ?v_126 1000)) (?v_108 (* (- x_19 x_81) 1000)) (?v_111 (* (- x_22 x_77) 1000)) (?v_112 (* (- x_22 x_81) 1000)) (?v_115 (* (- x_25 x_77) 1000)) (?v_116 (* (- x_25 x_81) 1000)) (?v_119 (* (- x_28 x_77) 1000)) (?v_120 (* (- x_28 x_81) 1000)) (?v_123 (* (- x_14 x_77) 1000)) (?v_138 (- x_14 x_81))) (let ((?v_124 (* ?v_138 1000)) (?v_127 (- x_13 x_72)) (?v_129 (- x_22 x_78)) (?v_130 (- x_13 x_73)) (?v_132 (- x_25 x_79)) (?v_133 (- x_13 x_74)) (?v_135 (- x_28 x_80)) (?v_136 (- x_13 x_75)) (?v_139 (- x_13 x_76)) (?v_140 (- x_18 x_19)) (?v_142 (- x_21 x_22)) (?v_144 (- x_24 x_25)) (?v_145 (- x_27 x_28)) (?v_146 (- x_15 x_14)) (?v_155 (- x_1 x_1)) (?v_157 (- x_2 x_2)) (?v_159 (- x_3 x_3)) (?v_160 (- x_4 x_4)) (?v_161 (- x_5 x_5)) (?v_162 (- x_1 0)) (?v_163 (- 1 ?v_65)) (?v_167 (- x_2 0)) (?v_169 (- x_3 0)) (?v_170 (- x_4 0)) (?v_171 (- x_5 0)) (?v_179 (- ?v_65 1)) (?v_181 (- 0 x_2)) (?v_183 (- 0 x_3)) (?v_184 (- 0 x_4)) (?v_0 (+ x_0 (/ 999 1000))) (?v_1 (+ x_0 (/ 1001 1000))) (?v_141 (* (* x_7 999) (/ 1 1000))) (?v_143 (* (* x_7 1001) (/ 1 1000))) (?v_156 (* (* ?v_154 999) (/ 1 1000))) (?v_158 (* (* ?v_154 1001) (/ 1 1000)))) (let ((?v_166 (* (* ?v_163 999) (/ 1 1000))) (?v_168 (* (* ?v_163 1001) (/ 1 1000))) (?v_176 (and ?v_177 (or (not (>= (+ (+ (* (* (+ (+ (+ 1 (* ?v_174 (/ 1 999))) 1) (* ?v_175 (/ 1 999))) 1) (/ 1 2)) x_44) (/ 3001 1998)) 0)) (> (- (- (* (* (+ (+ (+ 1 (* ?v_174 (/ 1 1001))) 1) (* ?v_175 (/ 1 1001))) 1) (/ 1 2)) x_44) (/ 1 2)) 0)))) (?v_180 (* (* ?v_179 999) (/ 1 1000))) (?v_182 (* (* ?v_179 1001) (/ 1 1000))) (?v_189 (and ?v_173 (or (not (<= ?v_141 ?v_188)) (not (<= ?v_188 ?v_143)))))) (and (and (and (and (and (and (and (and (and (and (and (and (and (and (and (and (and (and (and (and (and (not (<= x_6 0)) (not (<= x_7 0))) (not (<= x_44 0))) (not (< x_82 (+ x_44 (* (* (+ (* (* x_7 1) (/ 1 2)) 1) 1001) (/ 1 999)))))) (< x_83 (- (* (* (- (- x_7 x_82) 1) 999) (/ 1 2)) 1))) (not (< x_83 (* (* (+ (+ (+ x_6 x_44) x_82) (/ 1501 1000)) 1001) (/ 1 999))))) (not (<= x_84 0))) (<= x_84 (- x_6 (+ (+ x_44 (* (* (+ x_7 2) 1001) (/ 1 999))) (/ 1 2))))) (= x_0 0)) (<= ?v_0 x_1)) (<= x_1 ?v_1)) (<= ?v_0 x_2)) (<= x_2 ?v_1)) (<= ?v_0 x_3)) (<= x_3 ?v_1)) (<= ?v_0 x_4)) (<= x_4 ?v_1)) (<= ?v_0 x_5)) (<= x_5 ?v_1)) (or (and (and (and (and (and (and (and (and (and (and (and (and (and (and (and (and (and (and (and (and (and (and (and (and (and (and (and (and (and (and (and (and (and (and (and (and (and (and (and (and (and (and (and (and (and (and (and (and (and (and (and (and (and (and (and (and (and (and (and (and (and (and (and (and (and (and (and (and (and (and (and (< x_0 x_1) (< x_0 x_2)) (< x_0 x_3)) (< x_0 x_4)) (< x_0 x_5)) (< x_0 x_45)) (<= x_45 x_1)) (<= x_45 x_2)) (<= x_45 x_3)) (<= x_45 x_4)) (<= x_45 x_5)) (or (or (or (or (= x_45 x_1) (= x_45 x_2)) (= x_45 x_3)) (= x_45 x_4)) (= x_45 x_5))) ?v_47) ?v_13) ?v_20) ?v_27) ?v_34) ?v_5) ?v_14) ?v_21) ?v_28) ?v_35) ?v_4) ?v_15) ?v_22) ?v_29) ?v_36) ?v_48) ?v_16) ?v_23) ?v_30) ?v_37) ?v_10) ?v_17) ?v_24) ?v_31) ?v_38) ?v_9) ?v_18) ?v_25) ?v_32) ?v_39) ?v_11) ?v_19) ?v_26) ?v_33) ?v_40) (= x_46 1)) (= x_47 1)) (= x_48 1)) (= x_49 1)) (= x_50 1)) (= x_51 1)) (= x_52 1)) (= x_53 1)) (= x_54 1)) (= x_55 1)) (= x_56 1)) (= x_57 1)) (= x_58 1)) (= x_59 1)) (= x_60 1)) (= x_61 1)) (= x_62 1)) (= x_63 1)) (= x_64 1)) (= x_65 1)) (= x_66 1)) (= x_67 1)) (= x_68 1)) (= x_69 1)) (= x_70 1)) (and (and (and (and (and (and (and (and (and (and (and (and (and (and (and (and (and (and (and (and (and (and (and (and (and (and (and (and (and (and (and (and (and (and (and (and (and (and (and (and (and (and (and (and (and (and (and (and (and (and (and (or (or (or (or (and (and (and (and (and (and (and (and (and (and (and (and (and (and (and (and (and (and (and (and (and (and (and (and (and (and (and (and (and (and (and (and (= x_0 x_1) (<= ?v_0 x_39)) (<= x_39 ?v_1)) (or (or (and (and (and (and ?v_6 (<= ?v_41 ?v_2)) (<= ?v_2 ?v_43)) ?v_8) ?v_4) (and (and (and ?v_7 (= x_40 ?v_44)) (= x_8 ?v_45)) ?v_5)) (and (and (and ?v_12 ?v_8) ?v_5) ?v_4))) (or (or (and (and (and ?v_6 (= x_19 x_0)) ?v_9) ?v_10) (and (and (and ?v_7 (= x_18 x_0)) (= x_17 (- x_40 1))) ?v_11)) (and (and (and ?v_12 ?v_11) ?v_9) ?v_10))) ?v_13) ?v_14) ?v_15) ?v_16) ?v_17) ?v_18) ?v_19) ?v_20) ?v_21) ?v_22) ?v_23) ?v_24) ?v_25) ?v_26) ?v_27) ?v_28) ?v_29) ?v_30) ?v_31) ?v_32) ?v_33) ?v_34) ?v_35) ?v_36) ?v_37) ?v_38) ?v_39) ?v_40) (and (and (and (and (and (and (and (and (and (and (and (and (and (and (and (and (and (and (and (and (and (and (and (and (and (and (and (and (and (and (and (and (= x_0 x_2) (<= ?v_0 x_41)) (<= x_41 ?v_1)) (or (or (and (and (and (and ?v_6 (<= ?v_41 ?v_42)) (<= ?v_42 ?v_43)) ?v_46) ?v_15) (and (and (and ?v_7 (= x_34 ?v_44)) (= x_9 ?v_45)) ?v_14)) (and (and (and ?v_12 ?v_46) ?v_14) ?v_15))) (or (or (and (and (and ?v_6 (= x_22 x_0)) ?v_18) ?v_17) (and (and (and ?v_7 (= x_21 x_0)) (= x_20 (- x_34 1))) ?v_19)) (and (and (and ?v_12 ?v_19) ?v_18) ?v_17))) ?v_47) ?v_5) ?v_4) ?v_48) ?v_10) ?v_9) ?v_11) ?v_20) ?v_21) ?v_22) ?v_23) ?v_24) ?v_25) ?v_26) ?v_27) ?v_28) ?v_29) ?v_30) ?v_31) ?v_32) ?v_33) ?v_34) ?v_35) ?v_36) ?v_37) ?v_38) ?v_39) ?v_40)) (and (and (and (and (and (and (and (and (and (and (and (and (and (and (and (and (and (and (and (and (and (and (and (and (and (and (and (and (and (and (and (and (= x_0 x_3) (<= ?v_0 x_42)) (<= x_42 ?v_1)) (or (or (and (and (and (and ?v_6 (<= ?v_41 ?v_49)) (<= ?v_49 ?v_43)) ?v_50) ?v_22) (and (and (and ?v_7 (= x_35 ?v_44)) (= x_10 ?v_45)) ?v_21)) (and (and (and ?v_12 ?v_50) ?v_21) ?v_22))) (or (or (and (and (and ?v_6 (= x_25 x_0)) ?v_25) ?v_24) (and (and (and ?v_7 (= x_24 x_0)) (= x_23 (- x_35 1))) ?v_26)) (and (and (and ?v_12 ?v_26) ?v_25) ?v_24))) ?v_47) ?v_5) ?v_4) ?v_48) ?v_10) ?v_9) ?v_11) ?v_13) ?v_14) ?v_15) ?v_16) ?v_17) ?v_18) ?v_19) ?v_27) ?v_28) ?v_29) ?v_30) ?v_31) ?v_32) ?v_33) ?v_34) ?v_35) ?v_36) ?v_37) ?v_38) ?v_39) ?v_40)) (and (and (and (and (and (and (and (and (and (and (and (and (and (and (and (and (and (and (and (and (and (and (and (and (and (and (and (and (and (and (and (and (= x_0 x_4) (<= ?v_0 x_43)) (<= x_43 ?v_1)) (or (or (and (and (and (and ?v_6 (<= ?v_41 ?v_51)) (<= ?v_51 ?v_43)) ?v_52) ?v_29) (and (and (and ?v_7 (= x_36 ?v_44)) (= x_11 ?v_45)) ?v_28)) (and (and (and ?v_12 ?v_52) ?v_28) ?v_29))) (or (or (and (and (and ?v_6 (= x_28 x_0)) ?v_32) ?v_31) (and (and (and ?v_7 (= x_27 x_0)) (= x_26 (- x_36 1))) ?v_33)) (and (and (and ?v_12 ?v_33) ?v_32) ?v_31))) ?v_47) ?v_5) ?v_4) ?v_48) ?v_10) ?v_9) ?v_11) ?v_13) ?v_14) ?v_15) ?v_16) ?v_17) ?v_18) ?v_19) ?v_20) ?v_21) ?v_22) ?v_23) ?v_24) ?v_25) ?v_26) ?v_34) ?v_35) ?v_36) ?v_37) ?v_38) ?v_39) ?v_40)) (and (and (and (and (and (and (and (and (and (and (and (and (and (and (and (and (and (and (and (and (and (and (and (and (and (and (and (and (and (and (and (and (= x_0 x_5) (<= ?v_0 x_37)) (<= x_37 ?v_1)) (or (or (and (and (and (and ?v_6 (<= ?v_41 ?v_53)) (<= ?v_53 ?v_43)) ?v_54) ?v_36) (and (and (and ?v_7 (= x_38 ?v_44)) (= x_12 ?v_45)) ?v_35)) (and (and (and ?v_12 ?v_54) ?v_35) ?v_36))) (or (or (and (and (and ?v_6 (= x_14 x_0)) ?v_39) ?v_38) (and (and (and ?v_7 (= x_15 x_0)) (= x_16 (- x_38 1))) ?v_40)) (and (and (and ?v_12 ?v_40) ?v_39) ?v_38))) ?v_47) ?v_5) ?v_4) ?v_48) ?v_10) ?v_9) ?v_11) ?v_13) ?v_14) ?v_15) ?v_16) ?v_17) ?v_18) ?v_19) ?v_20) ?v_21) ?v_22) ?v_23) ?v_24) ?v_25) ?v_26) ?v_27) ?v_28) ?v_29) ?v_30) ?v_31) ?v_32) ?v_33)) (<= ?v_55 x_46)) (<= ?v_55 x_51)) (<= ?v_55 x_56)) (<= ?v_55 x_61)) (<= ?v_55 x_66)) (<= ?v_56 x_47)) (<= ?v_56 x_52)) (<= ?v_56 x_57)) (<= ?v_56 x_62)) (<= ?v_56 x_67)) (<= ?v_57 x_48)) (<= ?v_57 x_53)) (<= ?v_57 x_58)) (<= ?v_57 x_63)) (<= ?v_57 x_68)) (<= ?v_58 x_49)) (<= ?v_58 x_54)) (<= ?v_58 x_59)) (<= ?v_58 x_64)) (<= ?v_58 x_69)) (<= ?v_59 x_50)) (<= ?v_59 x_55)) (<= ?v_59 x_60)) (<= ?v_59 x_65)) (<= ?v_59 x_70)) (<= x_46 ?v_60)) (<= x_51 ?v_60)) (<= x_56 ?v_60)) (<= x_61 ?v_60)) (<= x_66 ?v_60)) (<= x_47 ?v_61)) (<= x_52 ?v_61)) (<= x_57 ?v_61)) (<= x_62 ?v_61)) (<= x_67 ?v_61)) (<= x_48 ?v_62)) (<= x_53 ?v_62)) (<= x_58 ?v_62)) (<= x_63 ?v_62)) (<= x_68 ?v_62)) (<= x_49 ?v_63)) (<= x_54 ?v_63)) (<= x_59 ?v_63)) (<= x_64 ?v_63)) (<= x_69 ?v_63)) (<= x_50 ?v_64)) (<= x_55 ?v_64)) (<= x_60 ?v_64)) (<= x_65 ?v_64)) (<= x_70 ?v_64)) (= x_45 x_0)))) (or (and (and (and (and (and (and (and (and (and (and (and (and (and (and (and (and (not ?v_66) (not ?v_67)) (not ?v_68)) (not ?v_69)) (not ?v_70)) (= x_71 x_45)) (= x_72 x_40)) (= x_73 x_34)) (= x_74 x_35)) (= x_75 x_36)) (= x_76 x_38)) (= x_77 x_39)) (= x_78 x_41)) (= x_79 x_42)) (= x_80 x_43)) (= x_81 x_37)) (= x_13 ?v_150)) (and (and (and (and (and (and (and (and (and (and (and (and (or (or (or (or ?v_66 ?v_67) ?v_68) ?v_69) ?v_70) (= x_13 ?v_65)) (= x_71 x_0)) (= x_77 x_1)) (= x_78 x_2)) (= x_79 x_3)) (= x_80 x_4)) (= x_81 x_5)) (= x_72 1)) (= x_73 1)) (= x_74 1)) (= x_75 1)) (= x_76 1)))) (or (or (or (or (or (or (or (or (or (or (or (or (or (or (or (or (or (or (or (or (or (or (or (or (or (or (or (or (or (or (or (or (or (or (or (or (or (or (or (or (or (or (or (or (or (or (or (or (or (or (or (or (or (or (or (or (or (or (or (or (or (or (or (or (or (or (or (or (or (or (or (or (or (or (or (or (or (or (or (or (or (or (or (or (or (or (or (or (or (or (or (or (or (or (or (or (or (or (or (or (or (or (or (or (or (or (or (or (or (or (or (or (or (or (or (or (or (or (or (or (or (or (or (or (or (or (or (or (or (or (or (or (or (or (or (or (or (or (or (or (or (not (<= ?v_71 x_72)) (not (<= ?v_71 x_73))) (not (<= ?v_71 x_74))) (not (<= ?v_71 x_75))) (not (<= ?v_71 x_76))) (not (<= x_72 ?v_72))) (not (<= x_73 ?v_72))) (not (<= x_74 ?v_72))) (not (<= x_75 ?v_72))) (not (<= x_76 ?v_72))) (not (<= (- x_72 x_72) x_82))) (not (<= (- x_73 x_72) x_82))) (not (<= (- x_74 x_72) x_82))) (not (<= (- x_75 x_72) x_82))) (not (<= (- x_76 x_72) x_82))) (not (<= (- x_72 x_73) x_82))) (not (<= (- x_73 x_73) x_82))) (not (<= (- x_74 x_73) x_82))) (not (<= (- x_75 x_73) x_82))) (not (<= (- x_76 x_73) x_82))) (not (<= (- x_72 x_74) x_82))) (not (<= (- x_73 x_74) x_82))) (not (<= (- x_74 x_74) x_82))) (not (<= (- x_75 x_74) x_82))) (not (<= (- x_76 x_74) x_82))) (not (<= (- x_72 x_75) x_82))) (not (<= (- x_73 x_75) x_82))) (not (<= (- x_74 x_75) x_82))) (not (<= (- x_75 x_75) x_82))) (not (<= (- x_76 x_75) x_82))) (not (<= (- x_72 x_76) x_82))) (not (<= (- x_73 x_76) x_82))) (not (<= (- x_74 x_76) x_82))) (not (<= (- x_75 x_76) x_82))) (not (<= (- x_76 x_76) x_82))) (and (or ?v_75 (not (<= x_40 ?v_73))) (not ?v_106))) (and (or ?v_76 (not (<= x_34 ?v_73))) (not ?v_110))) (and (or ?v_77 (not (<= x_35 ?v_73))) (not ?v_114))) (and (or ?v_78 (not (<= x_36 ?v_73))) (not ?v_118))) (and (or ?v_79 (not (<= x_38 ?v_73))) (not ?v_122))) (and (and (and (and ?v_75 ?v_76) ?v_77) ?v_78) ?v_79)) (and ?v_80 (or (not (<= (* (* ?v_82 999) (/ 1 1000)) ?v_81)) (not (<= ?v_81 (* (* ?v_82 1001) (/ 1 1000))))))) (and ?v_83 (or (not (<= (* (* ?v_85 999) (/ 1 1000)) ?v_84)) (not (<= ?v_84 (* (* ?v_85 1001) (/ 1 1000))))))) (and ?v_86 (or (not (<= (* (* ?v_88 999) (/ 1 1000)) ?v_87)) (not (<= ?v_87 (* (* ?v_88 1001) (/ 1 1000))))))) (and ?v_89 (or (not (<= (* (* ?v_91 999) (/ 1 1000)) ?v_90)) (not (<= ?v_90 (* (* ?v_91 1001) (/ 1 1000))))))) (and ?v_92 (or (not (<= (* (* ?v_94 999) (/ 1 1000)) ?v_93)) (not (<= ?v_93 (* (* ?v_94 1001) (/ 1 1000))))))) (and (and ?v_80 ?v_105) (or (or (< x_45 x_19) (not (<= (* (* ?v_96 999) (/ 1 1000)) ?v_95))) (not (<= ?v_95 (* (* ?v_96 1001) (/ 1 1000))))))) (and (and ?v_83 ?v_109) (or (or (< x_45 x_22) (not (<= (* (* ?v_98 999) (/ 1 1000)) ?v_97))) (not (<= ?v_97 (* (* ?v_98 1001) (/ 1 1000))))))) (and (and ?v_86 ?v_113) (or (or (< x_45 x_25) (not (<= (* (* ?v_100 999) (/ 1 1000)) ?v_99))) (not (<= ?v_99 (* (* ?v_100 1001) (/ 1 1000))))))) (and (and ?v_89 ?v_117) (or (or (< x_45 x_28) (not (<= (* (* ?v_102 999) (/ 1 1000)) ?v_101))) (not (<= ?v_101 (* (* ?v_102 1001) (/ 1 1000))))))) (and (and ?v_92 ?v_121) (or (or (< x_45 x_14) (not (<= (* (* ?v_104 999) (/ 1 1000)) ?v_103))) (not (<= ?v_103 (* (* ?v_104 1001) (/ 1 1000))))))) (and ?v_125 (or (not (<= x_29 (+ (+ (* (* (+ (+ (+ x_72 (* ?v_107 (/ 1 999))) x_76) (* ?v_108 (/ 1 999))) 1) (/ 1 2)) x_44) (/ 3001 1998)))) (< x_29 (- (- (* (* (+ (+ (+ x_72 (* ?v_107 (/ 1 1001))) x_76) (* ?v_108 (/ 1 1001))) 1) (/ 1 2)) x_44) (/ 1 2)))))) (and ?v_128 (or (not (<= x_30 (+ (+ (* (* (+ (+ (+ x_72 (* ?v_111 (/ 1 999))) x_76) (* ?v_112 (/ 1 999))) 1) (/ 1 2)) x_44) (/ 3001 1998)))) (< x_30 (- (- (* (* (+ (+ (+ x_72 (* ?v_111 (/ 1 1001))) x_76) (* ?v_112 (/ 1 1001))) 1) (/ 1 2)) x_44) (/ 1 2)))))) (and ?v_131 (or (not (<= x_31 (+ (+ (* (* (+ (+ (+ x_72 (* ?v_115 (/ 1 999))) x_76) (* ?v_116 (/ 1 999))) 1) (/ 1 2)) x_44) (/ 3001 1998)))) (< x_31 (- (- (* (* (+ (+ (+ x_72 (* ?v_115 (/ 1 1001))) x_76) (* ?v_116 (/ 1 1001))) 1) (/ 1 2)) x_44) (/ 1 2)))))) (and ?v_134 (or (not (<= x_32 (+ (+ (* (* (+ (+ (+ x_72 (* ?v_119 (/ 1 999))) x_76) (* ?v_120 (/ 1 999))) 1) (/ 1 2)) x_44) (/ 3001 1998)))) (< x_32 (- (- (* (* (+ (+ (+ x_72 (* ?v_119 (/ 1 1001))) x_76) (* ?v_120 (/ 1 1001))) 1) (/ 1 2)) x_44) (/ 1 2)))))) (and ?v_137 (or (not (<= x_33 (+ (+ (* (* (+ (+ (+ x_72 (* ?v_123 (/ 1 999))) x_76) (* ?v_124 (/ 1 999))) 1) (/ 1 2)) x_44) (/ 3001 1998)))) (< x_33 (- (- (* (* (+ (+ (+ x_72 (* ?v_123 (/ 1 1001))) x_76) (* ?v_124 (/ 1 1001))) 1) (/ 1 2)) x_44) (/ 1 2)))))) (and ?v_125 (or (not (<= (* (* ?v_127 999) (/ 1 1000)) ?v_126)) (not (<= ?v_126 (* (* ?v_127 1001) (/ 1 1000))))))) (and ?v_128 (or (not (<= (* (* ?v_130 999) (/ 1 1000)) ?v_129)) (not (<= ?v_129 (* (* ?v_130 1001) (/ 1 1000))))))) (and ?v_131 (or (not (<= (* (* ?v_133 999) (/ 1 1000)) ?v_132)) (not (<= ?v_132 (* (* ?v_133 1001) (/ 1 1000))))))) (and ?v_134 (or (not (<= (* (* ?v_136 999) (/ 1 1000)) ?v_135)) (not (<= ?v_135 (* (* ?v_136 1001) (/ 1 1000))))))) (and ?v_137 (or (not (<= (* (* ?v_139 999) (/ 1 1000)) ?v_138)) (not (<= ?v_138 (* (* ?v_139 1001) (/ 1 1000))))))) (and ?v_106 (not (= x_17 (+ x_29 x_7))))) (and ?v_110 (not (= x_20 (+ x_30 x_7))))) (and ?v_114 (not (= x_23 (+ x_31 x_7))))) (and ?v_118 (not (= x_26 (+ x_32 x_7))))) (and ?v_122 (not (= x_16 (+ x_33 x_7))))) (and ?v_106 (or (not (<= ?v_141 ?v_140)) (not (<= ?v_140 ?v_143))))) (and ?v_110 (or (not (<= ?v_141 ?v_142)) (not (<= ?v_142 ?v_143))))) (and ?v_114 (or (not (<= ?v_141 ?v_144)) (not (<= ?v_144 ?v_143))))) (and ?v_118 (or (not (<= ?v_141 ?v_145)) (not (<= ?v_145 ?v_143))))) (and ?v_122 (or (not (<= ?v_141 ?v_146)) (not (<= ?v_146 ?v_143))))) ?v_147) ?v_147) ?v_147) ?v_147) ?v_147) ?v_148) ?v_148) ?v_148) ?v_148) ?v_148) ?v_149) ?v_149) ?v_149) ?v_149) ?v_149) ?v_149) ?v_149) ?v_149) ?v_149) ?v_149) ?v_149) ?v_149) ?v_149) ?v_149) ?v_149) ?v_149) ?v_149) ?v_149) ?v_149) ?v_149) ?v_149) ?v_149) ?v_149) ?v_149) ?v_149) ?v_151) ?v_151) ?v_151) ?v_151) ?v_151) (and (and (and (and ?v_152 ?v_152) ?v_152) ?v_152) ?v_152)) (and ?v_153 (or (not (<= ?v_156 ?v_155)) (not (<= ?v_155 ?v_158))))) (and ?v_153 (or (not (<= ?v_156 ?v_157)) (not (<= ?v_157 ?v_158))))) (and ?v_153 (or (not (<= ?v_156 ?v_159)) (not (<= ?v_159 ?v_158))))) (and ?v_153 (or (not (<= ?v_156 ?v_160)) (not (<= ?v_160 ?v_158))))) (and ?v_153 (or (not (<= ?v_156 ?v_161)) (not (<= ?v_161 ?v_158))))) (and ?v_164 (or (or ?v_165 (not (<= ?v_166 ?v_162))) (not (<= ?v_162 ?v_168))))) (and ?v_164 (or (or ?v_165 (not (<= ?v_166 ?v_167))) (not (<= ?v_167 ?v_168))))) (and ?v_164 (or (or ?v_165 (not (<= ?v_166 ?v_169))) (not (<= ?v_169 ?v_168))))) (and ?v_164 (or (or ?v_165 (not (<= ?v_166 ?v_170))) (not (<= ?v_170 ?v_168))))) (and ?v_164 (or (or ?v_165 (not (<= ?v_166 ?v_171))) (not (<= ?v_171 ?v_168))))) ?v_176) ?v_176) ?v_176) ?v_176) ?v_176) (and ?v_177 (or (not (<= ?v_180 ?v_178)) (not (<= ?v_178 ?v_182))))) (and ?v_177 (or (not (<= ?v_180 ?v_181)) (not (<= ?v_181 ?v_182))))) (and ?v_177 (or (not (<= ?v_180 ?v_183)) (not (<= ?v_183 ?v_182))))) (and ?v_177 (or (not (<= ?v_180 ?v_184)) (not (<= ?v_184 ?v_182))))) (and ?v_177 (or (not (<= ?v_180 ?v_185)) (not (<= ?v_185 ?v_182))))) ?v_187) ?v_187) ?v_187) ?v_187) ?v_187) ?v_189) ?v_189) ?v_189) ?v_189) ?v_189)))))))))))))))))))))))))
(check-sat)
(exit)
